\ LP format - for model browsing. Use MPS format to capture full model detail.
Minimize
  2314 x[0] + 1039 x[1] + 1019 x[2] + 736 x[3] + 726 x[4] + 656 x[5]
   + 635 x[6] + 619 x[7] + 604 x[8] + 596 x[9] + 509 x[10] + 501 x[11]
   + 479 x[12] + 479 x[13] + 448 x[14] + 342 x[15] + 323 x[16] + 312 x[17]
   + 202 x[18] + 150 x[19] + 60 x[20] + 2789 x[21] + 1526 x[22]
   + 1449 x[23] + 1226 x[24] + 1133 x[25] + 1127 x[26] + 1122 x[27]
   + 1047 x[28] + 1021 x[29] + 1010 x[30] + 978 x[31] + 958 x[32]
   + 941 x[33] + 542 x[34] + 532 x[35] + 510 x[36] + 474 x[37] + 364 x[38]
   + 246 x[39] + 126 x[40] + 2728 x[41] + 1516 x[42] + 1371 x[43]
   + 1184 x[44] + 1115 x[45] + 1084 x[46] + 1045 x[47] + 976 x[48]
   + 952 x[49] + 946 x[50] + 941 x[51] + 913 x[52] + 904 x[53] + 577 x[54]
   + 541 x[55] + 536 x[56] + 499 x[57] + 401 x[58] + 321 x[59] + 2553 x[60]
   + 1333 x[61] + 1157 x[62] + 1029 x[63] + 980 x[64] + 936 x[65]
   + 919 x[66] + 904 x[67] + 898 x[68] + 783 x[69] + 751 x[70] + 720 x[71]
   + 704 x[72] + 455 x[73] + 271 x[74] + 228 x[75] + 171 x[76] + 37 x[77]
   + 1504 x[78] + 1325 x[79] + 1179 x[80] + 1134 x[81] + 1033 x[82]
   + 996 x[83] + 858 x[84] + 855 x[85] + 820 x[86] + 818 x[87] + 808 x[88]
   + 677 x[89] + 651 x[90] + 600 x[91] + 583 x[92] + 478 x[93] + 401 x[94]
   + 1581 x[95] + 1077 x[96] + 970 x[97] + 932 x[98] + 740 x[99]
   + 687 x[100] + 470 x[101] + 379 x[102] + 348 x[103] + 342 x[104]
   + 336 x[105] + 308 x[106] + 289 x[107] + 271 x[108] + 261 x[109]
   + 115 x[110] + 1661 x[111] + 997 x[112] + 913 x[113] + 856 x[114]
   + 667 x[115] + 592 x[116] + 455 x[117] + 343 x[118] + 288 x[119]
   + 237 x[120] + 236 x[121] + 226 x[122] + 216 x[123] + 207 x[124]
   + 177 x[125] + 2320 x[126] + 1066 x[127] + 759 x[128] + 666 x[129]
   + 634 x[130] + 628 x[131] + 598 x[132] + 493 x[133] + 479 x[134]
   + 454 x[135] + 341 x[136] + 278 x[137] + 206 x[138] + 194 x[139]
   + 1387 x[140] + 1367 x[141] + 1333 x[142] + 1239 x[143] + 933 x[144]
   + 776 x[145] + 656 x[146] + 650 x[147] + 591 x[148] + 447 x[149]
   + 438 x[150] + 408 x[151] + 328 x[152] + 1697 x[153] + 1046 x[154]
   + 1033 x[155] + 922 x[156] + 622 x[157] + 610 x[158] + 427 x[159]
   + 400 x[160] + 333 x[161] + 133 x[162] + 128 x[163] + 96 x[164]
   + 2656 x[165] + 2540 x[166] + 2512 x[167] + 2248 x[168] + 1868 x[169]
   + 1841 x[170] + 1838 x[171] + 1789 x[172] + 1789 x[173] + 1777 x[174]
   + 1755 x[175] + 821 x[176] + 748 x[177] + 680 x[178] + 417 x[179]
   + 336 x[180] + 243 x[181] + 217 x[182] + 214 x[183] + 105 x[184]
   + 68 x[185] + 789 x[186] + 698 x[187] + 645 x[188] + 406 x[189]
   + 311 x[190] + 287 x[191] + 283 x[192] + 281 x[193] + 52 x[194]
   + 818 x[195] + 712 x[196] + 672 x[197] + 449 x[198] + 341 x[199]
   + 318 x[200] + 314 x[201] + 237 x[202] + 932 x[203] + 785 x[204]
   + 764 x[205] + 636 x[206] + 550 x[207] + 535 x[208] + 528 x[209]
   + 525 x[210] + 496 x[211] + 486 x[212] + 470 x[213] + 436 x[214]
   + 319 x[215] + 959 x[216] + 930 x[217] + 921 x[218] + 265 x[219]
   + 148 x[220] + 939 x[221] + 907 x[222] + 901 x[223] + 201 x[224]
   + 833 x[225] + 39 x[226] + 33 x[227] + 803 x[228] + 14 x[229]
   + 794 x[230]
Subject To
 R0: x[0] + x[1] + x[2] + x[3] + x[4] + x[5] + x[6] + x[7] + x[8] + x[9]
   + x[10] + x[11] + x[12] + x[13] + x[14] + x[15] + x[16] + x[17] + x[18]
   + x[19] + x[20] = 2
 R1: x[10] + x[21] + x[22] + x[23] + x[24] + x[25] + x[26] + x[27] + x[28]
   + x[29] + x[30] + x[31] + x[32] + x[33] + x[34] + x[35] + x[36] + x[37]
   + x[38] + x[39] + x[40] = 2
 R2: x[11] + x[40] + x[41] + x[42] + x[43] + x[44] + x[45] + x[46] + x[47]
   + x[48] + x[49] + x[50] + x[51] + x[52] + x[53] + x[54] + x[55] + x[56]
   + x[57] + x[58] + x[59] = 2
 R3: x[17] + x[37] + x[55] + x[60] + x[61] + x[62] + x[63] + x[64] + x[65]
   + x[66] + x[67] + x[68] + x[69] + x[70] + x[71] + x[72] + x[73] + x[74]
   + x[75] + x[76] + x[77] = 2
 R4: x[2] + x[22] + x[42] + x[62] + x[78] + x[79] + x[80] + x[81] + x[82]
   + x[83] + x[84] + x[85] + x[86] + x[87] + x[88] + x[89] + x[90] + x[91]
   + x[92] + x[93] + x[94] = 2
 R5: x[3] + x[24] + x[44] + x[64] + x[93] + x[95] + x[96] + x[97] + x[98]
   + x[99] + x[100] + x[101] + x[102] + x[103] + x[104] + x[105] + x[106]
   + x[107] + x[108] + x[109] + x[110] = 2
 R6: x[5] + x[25] + x[46] + x[66] + x[92] + x[110] + x[111] + x[112]
   + x[113] + x[114] + x[115] + x[116] + x[117] + x[118] + x[119] + x[120]
   + x[121] + x[122] + x[123] + x[124] + x[125] = 2
 R7: x[20] + x[35] + x[56] + x[74] + x[83] + x[99] + x[115] + x[126]
   + x[127] + x[128] + x[129] + x[130] + x[131] + x[132] + x[133] + x[134]
   + x[135] + x[136] + x[137] + x[138] + x[139] = 2
 R8: x[1] + x[23] + x[43] + x[61] + x[84] + x[101] + x[117] + x[127]
   + x[140] + x[141] + x[142] + x[143] + x[144] + x[145] + x[146] + x[147]
   + x[148] + x[149] + x[150] + x[151] + x[152] = 2
 R9: x[4] + x[27] + x[47] + x[63] + x[85] + x[102] + x[119] + x[128]
   + x[152] + x[153] + x[154] + x[155] + x[156] + x[157] + x[158] + x[159]
   + x[160] + x[161] + x[162] + x[163] + x[164] = 2
 R10: x[0] + x[21] + x[41] + x[60] + x[78] + x[95] + x[111] + x[126]
   + x[140] + x[153] + x[165] + x[166] + x[167] + x[168] + x[169] + x[170]
   + x[171] + x[172] + x[173] + x[174] + x[175] = 2
 R11: x[12] + x[32] + x[52] + x[70] + x[89] + x[108] + x[125] + x[133]
   + x[148] + x[161] + x[171] + x[176] + x[177] + x[178] + x[179] + x[180]
   + x[181] + x[182] + x[183] + x[184] + x[185] = 2
 R12: x[14] + x[33] + x[53] + x[72] + x[90] + x[107] + x[123] + x[135]
   + x[147] + x[160] + x[169] + x[185] + x[186] + x[187] + x[188] + x[189]
   + x[190] + x[191] + x[192] + x[193] + x[194] = 2
 R13: x[13] + x[31] + x[50] + x[71] + x[91] + x[109] + x[124] + x[134]
   + x[146] + x[159] + x[170] + x[184] + x[194] + x[195] + x[196] + x[197]
   + x[198] + x[199] + x[200] + x[201] + x[202] = 2
 R14: x[7] + x[26] + x[45] + x[69] + x[94] + x[106] + x[118] + x[132]
   + x[145] + x[157] + x[173] + x[180] + x[191] + x[202] + x[203] + x[204]
   + x[205] + x[206] + x[207] + x[208] + x[209] = 2
 R15: x[19] + x[34] + x[57] + x[73] + x[82] + x[100] + x[116] + x[138]
   + x[144] + x[158] + x[168] + x[179] + x[189] + x[198] + x[206] + x[210]
   + x[211] + x[212] + x[213] + x[214] + x[215] = 2
 R16: x[15] + x[39] + x[59] + x[75] + x[79] + x[96] + x[112] + x[136]
   + x[141] + x[154] + x[165] + x[176] + x[186] + x[195] + x[203] + x[214]
   + x[216] + x[217] + x[218] + x[219] + x[220] = 2
 R17: x[16] + x[36] + x[54] + x[77] + x[81] + x[97] + x[113] + x[137]
   + x[142] + x[155] + x[166] + x[177] + x[187] + x[196] + x[205] + x[213]
   + x[219] + x[221] + x[222] + x[223] + x[224] = 2
 R18: x[6] + x[28] + x[48] + x[65] + x[87] + x[104] + x[121] + x[129]
   + x[151] + x[164] + x[175] + x[181] + x[190] + x[199] + x[207] + x[210]
   + x[216] + x[221] + x[225] + x[226] + x[227] = 2
 R19: x[8] + x[29] + x[49] + x[67] + x[88] + x[105] + x[122] + x[130]
   + x[150] + x[163] + x[174] + x[183] + x[193] + x[201] + x[209] + x[211]
   + x[217] + x[222] + x[227] + x[228] + x[229] = 2
 R20: x[9] + x[30] + x[51] + x[68] + x[86] + x[103] + x[120] + x[131]
   + x[149] + x[162] + x[172] + x[182] + x[192] + x[200] + x[208] + x[212]
   + x[218] + x[223] + x[226] + x[229] + x[230] = 2
 R21: x[18] + x[38] + x[58] + x[76] + x[80] + x[98] + x[114] + x[139]
   + x[143] + x[156] + x[167] + x[178] + x[188] + x[197] + x[204] + x[215]
   + x[220] + x[224] + x[225] + x[228] + x[230] = 2
Bounds
 x[0] <= 1
 x[1] <= 1
 x[2] <= 1
 x[3] <= 1
 x[4] <= 1
 x[5] <= 1
 x[6] <= 1
 x[7] <= 1
 x[8] <= 1
 x[9] <= 1
 x[10] <= 1
 x[11] <= 1
 x[12] <= 1
 x[13] <= 1
 x[14] <= 1
 x[15] <= 1
 x[16] <= 1
 x[17] <= 1
 x[18] <= 1
 x[19] <= 1
 x[20] <= 1
 x[21] <= 1
 x[22] <= 1
 x[23] <= 1
 x[24] <= 1
 x[25] <= 1
 x[26] <= 1
 x[27] <= 1
 x[28] <= 1
 x[29] <= 1
 x[30] <= 1
 x[31] <= 1
 x[32] <= 1
 x[33] <= 1
 x[34] <= 1
 x[35] <= 1
 x[36] <= 1
 x[37] <= 1
 x[38] <= 1
 x[39] <= 1
 x[40] <= 1
 x[41] <= 1
 x[42] <= 1
 x[43] <= 1
 x[44] <= 1
 x[45] <= 1
 x[46] <= 1
 x[47] <= 1
 x[48] <= 1
 x[49] <= 1
 x[50] <= 1
 x[51] <= 1
 x[52] <= 1
 x[53] <= 1
 x[54] <= 1
 x[55] <= 1
 x[56] <= 1
 x[57] <= 1
 x[58] <= 1
 x[59] <= 1
 x[60] <= 1
 x[61] <= 1
 x[62] <= 1
 x[63] <= 1
 x[64] <= 1
 x[65] <= 1
 x[66] <= 1
 x[67] <= 1
 x[68] <= 1
 x[69] <= 1
 x[70] <= 1
 x[71] <= 1
 x[72] <= 1
 x[73] <= 1
 x[74] <= 1
 x[75] <= 1
 x[76] <= 1
 x[77] <= 1
 x[78] <= 1
 x[79] <= 1
 x[80] <= 1
 x[81] <= 1
 x[82] <= 1
 x[83] <= 1
 x[84] <= 1
 x[85] <= 1
 x[86] <= 1
 x[87] <= 1
 x[88] <= 1
 x[89] <= 1
 x[90] <= 1
 x[91] <= 1
 x[92] <= 1
 x[93] <= 1
 x[94] <= 1
 x[95] <= 1
 x[96] <= 1
 x[97] <= 1
 x[98] <= 1
 x[99] <= 1
 x[100] <= 1
 x[101] <= 1
 x[102] <= 1
 x[103] <= 1
 x[104] <= 1
 x[105] <= 1
 x[106] <= 1
 x[107] <= 1
 x[108] <= 1
 x[109] <= 1
 x[110] <= 1
 x[111] <= 1
 x[112] <= 1
 x[113] <= 1
 x[114] <= 1
 x[115] <= 1
 x[116] <= 1
 x[117] <= 1
 x[118] <= 1
 x[119] <= 1
 x[120] <= 1
 x[121] <= 1
 x[122] <= 1
 x[123] <= 1
 x[124] <= 1
 x[125] <= 1
 x[126] <= 1
 x[127] <= 1
 x[128] <= 1
 x[129] <= 1
 x[130] <= 1
 x[131] <= 1
 x[132] <= 1
 x[133] <= 1
 x[134] <= 1
 x[135] <= 1
 x[136] <= 1
 x[137] <= 1
 x[138] <= 1
 x[139] <= 1
 x[140] <= 1
 x[141] <= 1
 x[142] <= 1
 x[143] <= 1
 x[144] <= 1
 x[145] <= 1
 x[146] <= 1
 x[147] <= 1
 x[148] <= 1
 x[149] <= 1
 x[150] <= 1
 x[151] <= 1
 x[152] <= 1
 x[153] <= 1
 x[154] <= 1
 x[155] <= 1
 x[156] <= 1
 x[157] <= 1
 x[158] <= 1
 x[159] <= 1
 x[160] <= 1
 x[161] <= 1
 x[162] <= 1
 x[163] <= 1
 x[164] <= 1
 x[165] <= 1
 x[166] <= 1
 x[167] <= 1
 x[168] <= 1
 x[169] <= 1
 x[170] <= 1
 x[171] <= 1
 x[172] <= 1
 x[173] <= 1
 x[174] <= 1
 x[175] <= 1
 x[176] <= 1
 x[177] <= 1
 x[178] <= 1
 x[179] <= 1
 x[180] <= 1
 x[181] <= 1
 x[182] <= 1
 x[183] <= 1
 x[184] <= 1
 x[185] <= 1
 x[186] <= 1
 x[187] <= 1
 x[188] <= 1
 x[189] <= 1
 x[190] <= 1
 x[191] <= 1
 x[192] <= 1
 x[193] <= 1
 x[194] <= 1
 x[195] <= 1
 x[196] <= 1
 x[197] <= 1
 x[198] <= 1
 x[199] <= 1
 x[200] <= 1
 x[201] <= 1
 x[202] <= 1
 x[203] <= 1
 x[204] <= 1
 x[205] <= 1
 x[206] <= 1
 x[207] <= 1
 x[208] <= 1
 x[209] <= 1
 x[210] <= 1
 x[211] <= 1
 x[212] <= 1
 x[213] <= 1
 x[214] <= 1
 x[215] <= 1
 x[216] <= 1
 x[217] <= 1
 x[218] <= 1
 x[219] <= 1
 x[220] <= 1
 x[221] <= 1
 x[222] <= 1
 x[223] <= 1
 x[224] <= 1
 x[225] <= 1
 x[226] <= 1
 x[227] <= 1
 x[228] <= 1
 x[229] <= 1
 x[230] <= 1
End
